c CNF file corresponding to a (partial) station packing problem.
p cnf 4451 229
4435 4436 4437 4438 4439 4440 4441 4442 4443 4444 4445 4446 4447 4448 4449 4450 4451 0
-4435 -4436 0
-4435 -4437 0
-4435 -4438 0
-4435 -4439 0
-4435 -4440 0
-4435 -4441 0
-4435 -4442 0
-4435 -4443 0
-4435 -4444 0
-4435 -4445 0
-4435 -4446 0
-4435 -4447 0
-4435 -4448 0
-4435 -4449 0
-4435 -4450 0
-4435 -4451 0
-4436 -4437 0
-4436 -4438 0
-4436 -4439 0
-4436 -4440 0
-4436 -4441 0
-4436 -4442 0
-4436 -4443 0
-4436 -4444 0
-4436 -4445 0
-4436 -4446 0
-4436 -4447 0
-4436 -4448 0
-4436 -4449 0
-4436 -4450 0
-4436 -4451 0
-4437 -4438 0
-4437 -4439 0
-4437 -4440 0
-4437 -4441 0
-4437 -4442 0
-4437 -4443 0
-4437 -4444 0
-4437 -4445 0
-4437 -4446 0
-4437 -4447 0
-4437 -4448 0
-4437 -4449 0
-4437 -4450 0
-4437 -4451 0
-4438 -4439 0
-4438 -4440 0
-4438 -4441 0
-4438 -4442 0
-4438 -4443 0
-4438 -4444 0
-4438 -4445 0
-4438 -4446 0
-4438 -4447 0
-4438 -4448 0
-4438 -4449 0
-4438 -4450 0
-4438 -4451 0
-4439 -4440 0
-4439 -4441 0
-4439 -4442 0
-4439 -4443 0
-4439 -4444 0
-4439 -4445 0
-4439 -4446 0
-4439 -4447 0
-4439 -4448 0
-4439 -4449 0
-4439 -4450 0
-4439 -4451 0
-4440 -4441 0
-4440 -4442 0
-4440 -4443 0
-4440 -4444 0
-4440 -4445 0
-4440 -4446 0
-4440 -4447 0
-4440 -4448 0
-4440 -4449 0
-4440 -4450 0
-4440 -4451 0
-4441 -4442 0
-4441 -4443 0
-4441 -4444 0
-4441 -4445 0
-4441 -4446 0
-4441 -4447 0
-4441 -4448 0
-4441 -4449 0
-4441 -4450 0
-4441 -4451 0
-4442 -4443 0
-4442 -4444 0
-4442 -4445 0
-4442 -4446 0
-4442 -4447 0
-4442 -4448 0
-4442 -4449 0
-4442 -4450 0
-4442 -4451 0
-4443 -4444 0
-4443 -4445 0
-4443 -4446 0
-4443 -4447 0
-4443 -4448 0
-4443 -4449 0
-4443 -4450 0
-4443 -4451 0
-4444 -4445 0
-4444 -4446 0
-4444 -4447 0
-4444 -4448 0
-4444 -4449 0
-4444 -4450 0
-4444 -4451 0
-4445 -4446 0
-4445 -4447 0
-4445 -4448 0
-4445 -4449 0
-4445 -4450 0
-4445 -4451 0
-4446 -4447 0
-4446 -4448 0
-4446 -4449 0
-4446 -4450 0
-4446 -4451 0
-4447 -4448 0
-4447 -4449 0
-4447 -4450 0
-4447 -4451 0
-4448 -4449 0
-4448 -4450 0
-4448 -4451 0
-4449 -4450 0
-4449 -4451 0
-4450 -4451 0
1 2 3 4 5 6 7 8 9 10 11 12 13 14 0
-1 -2 0
-1 -3 0
-1 -4 0
-1 -5 0
-1 -6 0
-1 -7 0
-1 -8 0
-1 -9 0
-1 -10 0
-1 -11 0
-1 -12 0
-1 -13 0
-1 -14 0
-2 -3 0
-2 -4 0
-2 -5 0
-2 -6 0
-2 -7 0
-2 -8 0
-2 -9 0
-2 -10 0
-2 -11 0
-2 -12 0
-2 -13 0
-2 -14 0
-3 -4 0
-3 -5 0
-3 -6 0
-3 -7 0
-3 -8 0
-3 -9 0
-3 -10 0
-3 -11 0
-3 -12 0
-3 -13 0
-3 -14 0
-4 -5 0
-4 -6 0
-4 -7 0
-4 -8 0
-4 -9 0
-4 -10 0
-4 -11 0
-4 -12 0
-4 -13 0
-4 -14 0
-5 -6 0
-5 -7 0
-5 -8 0
-5 -9 0
-5 -10 0
-5 -11 0
-5 -12 0
-5 -13 0
-5 -14 0
-6 -7 0
-6 -8 0
-6 -9 0
-6 -10 0
-6 -11 0
-6 -12 0
-6 -13 0
-6 -14 0
-7 -8 0
-7 -9 0
-7 -10 0
-7 -11 0
-7 -12 0
-7 -13 0
-7 -14 0
-8 -9 0
-8 -10 0
-8 -11 0
-8 -12 0
-8 -13 0
-8 -14 0
-9 -10 0
-9 -11 0
-9 -12 0
-9 -13 0
-9 -14 0
-10 -11 0
-10 -12 0
-10 -13 0
-10 -14 0
-11 -12 0
-11 -13 0
-11 -14 0
-12 -13 0
-12 -14 0
-13 -14 0
